% demand
num_movements = 43;
loading_factor = [800, 2000, 1550, 1000, 800, 1300, 1050, 1650, 850, 1750, 800, 1350, 1950, 1200, 1100, 1950, 1100, 1500, 1900, 1800, 1250, 1050, 1050, 1100, 1400, 1150, 1350, 1400, 1400, 1250, 1800, 1700, 1050, 1700, 1000, 900, 950, 950, 1200, 1750, 800, 1150, 950];
pickup_time = [0, 0, 0, 0, 0, 0, 0, 0, 0, 1, 1, 2, 2, 2, 2, 2, 2, 3, 3, 3, 3, 3, 3, 4, 4, 4, 4, 4, 5, 5, 5, 5, 5, 6, 6, 6, 6, 6, 6, 6, 6, 7, 7];
delivery_time = [2, 2, 1, 2, 1, 3, 3, 1, 2, 2, 2, 3, 3, 3, 4, 3, 4, 4, 5, 4, 4, 4, 4, 6, 8, 6, 5, 5, 6, 6, 6, 6, 6, 8, 8, 7, 8, 8, 7, 8, 8, 8, 8];

% transporter definition
total_capacity = 11000;
num_decks = 4;
capacity = [3000, 3000, 1000, 4000];

% ways out of decks
num_ways_out = 2;
paths_out = array3d(decks, ways_out, decks, [
% ways out of deck d1
2, 4, 0, 0, 3, 4, 0, 0, 

% ways out of deck d2
4, 0, 0, 0, 0, 0, 0, 0,	

% ways out of deck d3
4, 0, 0, 0, 0, 0, 0, 0,	

% ways out of deck d4
0, 0, 0, 0,	0, 0, 0, 0,	

]);

